* #variable= 45 #constraint= 62 
-1 x31 -1 x1 -1 x16 >= -2 ;
-1 x31 +1 x1 +1 x16 >= 0 ;
+1 x31 -1 x1 +1 x16 >= 0 ;
+1 x31 +1 x1 -1 x16 >= 0 ;
-1 x32 -1 x2 -1 x17 >= -2 ;
-1 x32 +1 x2 +1 x17 >= 0 ;
+1 x32 -1 x2 +1 x17 >= 0 ;
+1 x32 +1 x2 -1 x17 >= 0 ;
-1 x33 -1 x3 -1 x18 >= -2 ;
-1 x33 +1 x3 +1 x18 >= 0 ;
+1 x33 -1 x3 +1 x18 >= 0 ;
+1 x33 +1 x3 -1 x18 >= 0 ;
-1 x34 -1 x4 -1 x19 >= -2 ;
-1 x34 +1 x4 +1 x19 >= 0 ;
+1 x34 -1 x4 +1 x19 >= 0 ;
+1 x34 +1 x4 -1 x19 >= 0 ;
-1 x35 -1 x5 -1 x20 >= -2 ;
-1 x35 +1 x5 +1 x20 >= 0 ;
+1 x35 -1 x5 +1 x20 >= 0 ;
+1 x35 +1 x5 -1 x20 >= 0 ;
-1 x36 -1 x6 -1 x21 >= -2 ;
-1 x36 +1 x6 +1 x21 >= 0 ;
+1 x36 -1 x6 +1 x21 >= 0 ;
+1 x36 +1 x6 -1 x21 >= 0 ;
-1 x37 -1 x7 -1 x22 >= -2 ;
-1 x37 +1 x7 +1 x22 >= 0 ;
+1 x37 -1 x7 +1 x22 >= 0 ;
+1 x37 +1 x7 -1 x22 >= 0 ;
-1 x38 -1 x8 -1 x23 >= -2 ;
-1 x38 +1 x8 +1 x23 >= 0 ;
+1 x38 -1 x8 +1 x23 >= 0 ;
+1 x38 +1 x8 -1 x23 >= 0 ;
-1 x39 -1 x9 -1 x24 >= -2 ;
-1 x39 +1 x9 +1 x24 >= 0 ;
+1 x39 -1 x9 +1 x24 >= 0 ;
+1 x39 +1 x9 -1 x24 >= 0 ;
-1 x40 -1 x10 -1 x25 >= -2 ;
-1 x40 +1 x10 +1 x25 >= 0 ;
+1 x40 -1 x10 +1 x25 >= 0 ;
+1 x40 +1 x10 -1 x25 >= 0 ;
-1 x41 -1 x11 -1 x26 >= -2 ;
-1 x41 +1 x11 +1 x26 >= 0 ;
+1 x41 -1 x11 +1 x26 >= 0 ;
+1 x41 +1 x11 -1 x26 >= 0 ;
-1 x42 -1 x12 -1 x27 >= -2 ;
-1 x42 +1 x12 +1 x27 >= 0 ;
+1 x42 -1 x12 +1 x27 >= 0 ;
+1 x42 +1 x12 -1 x27 >= 0 ;
-1 x43 -1 x13 -1 x28 >= -2 ;
-1 x43 +1 x13 +1 x28 >= 0 ;
+1 x43 -1 x13 +1 x28 >= 0 ;
+1 x43 +1 x13 -1 x28 >= 0 ;
-1 x44 -1 x14 -1 x29 >= -2 ;
-1 x44 +1 x14 +1 x29 >= 0 ;
+1 x44 -1 x14 +1 x29 >= 0 ;
+1 x44 +1 x14 -1 x29 >= 0 ;
-1 x45 -1 x15 -1 x30 >= -2 ;
-1 x45 +1 x15 +1 x30 >= 0 ;
+1 x45 -1 x15 +1 x30 >= 0 ;
+1 x45 +1 x15 -1 x30 >= 0 ;
+1 x1 -1 x16 +2 x2 -2 x17 +4 x3 -4 x18 +8 x4 -8 x19 +16 x5 -16 x20 +32 x6 -32 x21 +64 x7 -64 x22 +128 x8 -128 x23 +256 x9 -256 x24 +512 x10 -512 x25 +1024 x11 -1024 x26 +2048 x12 -2048 x27 +4096 x13 -4096 x28 +8192 x14 -8192 x29 +16384 x15 -16384 x30 = 0 ;
+1 x31 +1 x32 +1 x33 +1 x34 +1 x35 +1 x36 +1 x37 +1 x38 +1 x39 +1 x40 +1 x41 +1 x42 +1 x43 +1 x44 +1 x45 >= 1 ;
